
  32    4
  10   10   10   10

   0   0   0   0   0   5 2 3 4 5 8 
  10   1   1   0   1   3 10 9 6 
   5   0   5   1   9   3 9 7 6 
   7   3   5   0   1   4 14 13 10 9 
   3   6   0   4   2   4 14 13 10 9 
   1   3   4   7   0   6 18 15 14 13 12 11 
   2   6   4   5   0   4 18 14 13 11 
   7   2   3   4   0   4 18 15 13 11 
   8   4   5   0   4   3 18 16 11 
   9   0   3   2   5   2 18 12 
  10   5   5   0   5   8 31 30 27 26 23 21 20 17 
   9   7   3   0   3   5 31 27 26 17 16 
   5   8   0   4   2   5 31 27 26 25 16 
   1   3   0   4   1   5 31 27 25 22 16 
   3   0   3   3   7   9 31 30 26 25 24 22 21 20 19 
   7   5   0   2   5   5 30 24 21 20 19 
  10   4   0   3   7   4 25 24 22 19 
   6   4   5   0   4   4 30 27 26 23 
   4   1   4   0   3   2 29 28 
   1   0   4   5   5   2 29 28 
   7   4   3   0   5   2 29 28 
  10   2   5   0   2   2 29 28 
   8   4   9   0   3   2 29 28 
  10   2   4   6   0   1 29 
   9   3   0   2   5   1 28 
   9   2   5   0   5   1 28 
   9   6   2   3   0   1 28 
  10   3   0   3   6   1 32
   9   8   3   8   0   1 32
   5   0   3   6   3   1 32
   9   4   4   0   3   1 32
   0   0   0   0   0   0 
